
Gurobi 9.1.2 (win64) logging started Mon Dec  6 13:36:19 2021

Gurobi Optimizer version 9.1.2 build v9.1.2rc0 (win64)
Thread count: 8 physical cores, 8 logical processors, using up to 8 threads
Optimize a model with 1 rows, 23 columns and 22 nonzeros
Model fingerprint: 0xeb4c3635
Variable types: 1 continuous, 22 integer (22 binary)
Coefficient statistics:
  Matrix range     [1e+00, 1e+01]
  Objective range  [1e+00, 1e+00]
  Bounds range     [5e+00, 5e+00]
  RHS range        [1e+01, 1e+01]
Presolve time: 0.00s
Presolved: 1 rows, 23 columns, 22 nonzeros
Variable types: 1 continuous, 22 integer (22 binary)

Root simplex log...

Iteration    Objective       Primal Inf.    Dual Inf.      Time
       0   -5.2887025e+00   8.822637e-02   0.000000e+00     14s
       3   -5.2887025e+00   0.000000e+00   0.000000e+00     14s

Root relaxation: objective -5.288703e+00, 3 iterations, 0.00 seconds

    Nodes    |    Current Node    |     Objective Bounds      |     Work
 Expl Unexpl |  Obj  Depth IntInf | Incumbent    BestBd   Gap | It/Node Time

     0     0   -5.28870    0    2          -   -5.28870      -     -   14s
H    0     0                       0.7149211   -5.28870   840%     -   14s
H    0     0                      -0.3565473   -5.28870  1383%     -   14s
     0     0   -4.85505    0    2   -0.35655   -4.85505  1262%     -   15s
H    0     0                      -0.3565473   -4.85505  1262%     -   15s
     0     0   -4.46985    0    5   -0.35655   -4.46985  1154%     -   15s
     0     0   -4.45878    0    5   -0.35655   -4.45878  1151%     -   15s
     0     0   -4.34944    0    5   -0.35655   -4.34944  1120%     -   15s
     0     0   -4.33811    0    5   -0.35655   -4.33811  1117%     -   15s
     0     0   -4.32755    0    5   -0.35655   -4.32755  1114%     -   15s
     0     0   -3.77947    0    6   -0.35655   -3.77947   960%     -   15s
     0     0   -3.72752    0    8   -0.35655   -3.72752   945%     -   15s
     0     0   -3.72681    0    7   -0.35655   -3.72681   945%     -   15s
     0     0   -2.45690    0    4   -0.35655   -2.45690   589%     -   15s
     0     0   -2.40481    0    5   -0.35655   -2.40481   574%     -   15s
     0     0   -2.32696    0    7   -0.35655   -2.32696   553%     -   15s
     0     0   -2.32023    0    8   -0.35655   -2.32023   551%     -   15s
     0     0   -1.37885    0    4   -0.35655   -1.37885   287%     -   15s
     0     0   -1.32294    0    3   -0.35655   -1.32294   271%     -   15s
     0     0   -1.25396    0    5   -0.35655   -1.25396   252%     -   15s
     0     0   -1.23700    0    6   -0.35655   -1.23700   247%     -   15s
     0     0   -0.62676    0    5   -0.35655   -0.62676  75.8%     -   15s
     0     0   -0.62676    0    5   -0.35655   -0.62676  75.8%     -   15s

Explored 1 nodes (76 simplex iterations) in 15.12 seconds
Thread count was 8 (of 8 available processors)

Solution count 3: -0.356547 -0.356547 0.714921 

Optimal solution found (tolerance 1.00e-04)
Best objective -3.565473236495e-01, best bound -3.565473236495e-01, gap 0.0000%

User-callback calls 170, time in user-callback 18.73 sec
